6718
1320
4307
668
3417
2065
6268
10200
3169
8390
1503
2268
7228
7064
867
4264
1151
2364
3838
6361
9513
3560
3122
2617
9677
5364
3548
4359
2448
3016
5751
782
5159
5513
5825
1274
1457
897
4772
1670
6575
2257
8839
2168
3054
1797
6751
6942
8911
4130
6724
